(set-info :smt-lib-version 2.6)
(set-logic QF_NRA)
(set-info :source |Benchmarks generated from hycomp (https://es-static.fbk.eu/tools/hycomp/). BMC instances of non-linear hybrid automata taken from: Alessandro Cimatti, Sergio Mover, Stefano Tonetta, A quantifier-free SMT encoding of non-linear hybrid automata, FMCAD 2012 and Alessandro Cimatti, Sergio Mover, Stefano Tonetta, Quantier-free encoding of invariants for Hybrid Systems, Formal Methods in System Design. This instance solves a BMC problem of depth 1 and uses the quantifier free encoding with equivalences and lemmas encoding. Contacts: Sergio Mover (mover@fbk.eu), Stefano Tonetta (tonettas@fbk.eu), Alessandro Cimatti (cimatti@fbk.eu).|)
(set-info :category "industrial")
(set-info :status unsat)
;; MathSAT API call trace
;; generated on Mon Mar 19 10:43:30 2012
(declare-fun train2.event_is_timed__AT0 () Bool)
(declare-fun train2.front_position__AT1 () Real)
(declare-fun train2.speed__AT1 () Real)
(declare-fun train1.speed__AT1 () Real)
(declare-fun train1.timer__AT1 () Real)
(declare-fun train2.mode.0__AT1 () Bool)
(declare-fun train1.EVENT.1__AT0 () Bool)
(declare-fun train2.acceleration__AT1 () Real)
(declare-fun train2.EVENT.0__AT0 () Bool)
(declare-fun train1.front_position__AT0 () Real)
(declare-fun train1.speed__AT0 () Real)
(declare-fun train1.mode.0__AT1 () Bool)
(declare-fun train1.front_position__AT1 () Real)
(declare-fun train2.acceleration__AT0 () Real)
(declare-fun train1.event_is_timed__AT1 () Bool)
(declare-fun train2.timer__AT0 () Real)
(declare-fun train2.EVENT.1__AT0 () Bool)
(declare-fun train1.timer__AT0 () Real)
(declare-fun train1.acceleration__AT1 () Real)
(declare-fun train2.event_is_timed__AT1 () Bool)
(declare-fun train2.front_position__AT0 () Real)
(declare-fun train1.mode.0__AT0 () Bool)
(declare-fun train1.event_is_timed__AT0 () Bool)
(declare-fun train2.time__AT0 () Real)
(declare-fun train2.delta__AT0 () Real)
(declare-fun train1.train_rear_loc__AT0 () Real)
(declare-fun train1.time__AT0 () Real)
(declare-fun train2.time__AT1 () Real)
(declare-fun train1.delta__AT0 () Real)
(declare-fun train2.mode.0__AT0 () Bool)
(declare-fun train2.delta__AT1 () Real)
(declare-fun train2.speed__AT0 () Real)
(declare-fun train1.acceleration__AT0 () Real)
(declare-fun train2.train_rear_loc__AT0 () Real)
(declare-fun train1.time__AT1 () Real)
(declare-fun train2.timer__AT1 () Real)
(declare-fun train1.delta__AT1 () Real)
(declare-fun train1.EVENT.0__AT0 () Bool)
(assert (let ((.def_891 (+ train2.timer__AT1 train2.delta__AT1)))
(let ((.def_902 (<= .def_891 8.0 )))
(let ((.def_908 (not .def_902)))
(let ((.def_665 (<= train2.timer__AT1 8.0 )))
(let ((.def_909 (or .def_665 .def_908)))
(let ((.def_906 (<= 8.0 .def_891)))
(let ((.def_904 (<= 8.0 train2.timer__AT1)))
(let ((.def_905 (not .def_904)))
(let ((.def_907 (or .def_905 .def_906)))
(let ((.def_910 (and .def_907 .def_909)))
(let ((.def_903 (and .def_665 .def_902)))
(let ((.def_911 (and .def_903 .def_910)))
(let ((.def_898 (<= train2.timer__AT1 0.0 )))
(let ((.def_896 (<= .def_891 0.0 )))
(let ((.def_897 (not .def_896)))
(let ((.def_899 (or .def_897 .def_898)))
(let ((.def_664 (<= 0.0 train2.timer__AT1)))
(let ((.def_894 (not .def_664)))
(let ((.def_892 (<= 0.0 .def_891)))
(let ((.def_895 (or .def_892 .def_894)))
(let ((.def_900 (and .def_895 .def_899)))
(let ((.def_893 (and .def_664 .def_892)))
(let ((.def_901 (and .def_893 .def_900)))
(let ((.def_912 (and .def_901 .def_911)))
(let ((.def_853 (* train2.acceleration__AT1 train2.delta__AT1)))
(let ((.def_854 (+ train2.speed__AT1 .def_853)))
(let ((.def_871 (<= .def_854 (/ 417 5))))
(let ((.def_883 (not .def_871)))
(let ((.def_661 (<= train2.speed__AT1 (/ 417 5))))
(let ((.def_884 (or .def_661 .def_883)))
(let ((.def_877 (<= (/ 417 5) train2.speed__AT1)))
(let ((.def_881 (not .def_877)))
(let ((.def_875 (<= (/ 417 5) .def_854)))
(let ((.def_882 (or .def_875 .def_881)))
(let ((.def_885 (and .def_882 .def_884)))
(let ((.def_669 (<= train2.acceleration__AT1 0.0 )))
(let ((.def_886 (or .def_669 .def_885)))
(let ((.def_876 (not .def_875)))
(let ((.def_878 (or .def_876 .def_877)))
(let ((.def_873 (not .def_661)))
(let ((.def_874 (or .def_871 .def_873)))
(let ((.def_879 (and .def_874 .def_878)))
(let ((.def_845 (<= 0.0 train2.acceleration__AT1)))
(let ((.def_880 (or .def_845 .def_879)))
(let ((.def_887 (and .def_880 .def_886)))
(let ((.def_872 (and .def_661 .def_871)))
(let ((.def_888 (and .def_872 .def_887)))
(let ((.def_857 (<= .def_854 0.0 )))
(let ((.def_864 (not .def_857)))
(let ((.def_826 (<= train2.speed__AT1 0.0 )))
(let ((.def_865 (or .def_826 .def_864)))
(let ((.def_855 (<= 0.0 .def_854)))
(let ((.def_660 (<= 0.0 train2.speed__AT1)))
(let ((.def_813 (not .def_660)))
(let ((.def_863 (or .def_813 .def_855)))
(let ((.def_866 (and .def_863 .def_865)))
(let ((.def_867 (or .def_669 .def_866)))
(let ((.def_859 (not .def_855)))
(let ((.def_860 (or .def_660 .def_859)))
(let ((.def_827 (not .def_826)))
(let ((.def_858 (or .def_827 .def_857)))
(let ((.def_861 (and .def_858 .def_860)))
(let ((.def_862 (or .def_845 .def_861)))
(let ((.def_868 (and .def_862 .def_867)))
(let ((.def_856 (and .def_660 .def_855)))
(let ((.def_869 (and .def_856 .def_868)))
(let ((.def_801 (* (/ 1 2) train2.acceleration__AT1)))
(let ((.def_808 (* 2.0 .def_801)))
(let ((.def_809 (* train2.delta__AT1 .def_808)))
(let ((.def_810 (+ train2.speed__AT1 .def_809)))
(let ((.def_824 (<= .def_810 0.0 )))
(let ((.def_825 (not .def_824)))
(let ((.def_848 (or .def_825 .def_826)))
(let ((.def_811 (<= 0.0 .def_810)))
(let ((.def_847 (or .def_811 .def_813)))
(let ((.def_849 (and .def_847 .def_848)))
(let ((.def_850 (or .def_669 .def_849)))
(let ((.def_812 (not .def_811)))
(let ((.def_843 (or .def_660 .def_812)))
(let ((.def_842 (or .def_824 .def_827)))
(let ((.def_844 (and .def_842 .def_843)))
(let ((.def_846 (or .def_844 .def_845)))
(let ((.def_851 (and .def_846 .def_850)))
(let ((.def_839 (and .def_824 .def_826)))
(let ((.def_838 (and .def_660 .def_811)))
(let ((.def_840 (or .def_838 .def_839)))
(let ((.def_803 (* train2.speed__AT1 train2.delta__AT1)))
(let ((.def_800 (* train2.delta__AT1 train2.delta__AT1)))
(let ((.def_802 (* .def_800 .def_801)))
(let ((.def_804 (+ .def_802 .def_803)))
(let ((.def_805 (+ train2.front_position__AT1 .def_804)))
(let ((.def_818 (<= .def_805 0.0 )))
(let ((.def_832 (not .def_818)))
(let ((.def_816 (<= train2.front_position__AT1 0.0 )))
(let ((.def_833 (or .def_816 .def_832)))
(let ((.def_658 (<= 0.0 train2.front_position__AT1)))
(let ((.def_830 (not .def_658)))
(let ((.def_806 (<= 0.0 .def_805)))
(let ((.def_831 (or .def_806 .def_830)))
(let ((.def_834 (and .def_831 .def_833)))
(let ((.def_828 (or .def_825 .def_827)))
(let ((.def_829 (not .def_828)))
(let ((.def_835 (or .def_829 .def_834)))
(let ((.def_820 (not .def_806)))
(let ((.def_821 (or .def_658 .def_820)))
(let ((.def_817 (not .def_816)))
(let ((.def_819 (or .def_817 .def_818)))
(let ((.def_822 (and .def_819 .def_821)))
(let ((.def_814 (or .def_812 .def_813)))
(let ((.def_815 (not .def_814)))
(let ((.def_823 (or .def_815 .def_822)))
(let ((.def_836 (and .def_823 .def_835)))
(let ((.def_807 (and .def_658 .def_806)))
(let ((.def_837 (and .def_807 .def_836)))
(let ((.def_841 (and .def_837 .def_840)))
(let ((.def_852 (and .def_841 .def_851)))
(let ((.def_870 (and .def_852 .def_869)))
(let ((.def_889 (and .def_870 .def_888)))
(let ((.def_673 (<= train2.acceleration__AT1 (/ 7 10))))
(let ((.def_672 (<= (- (/ 7 10)) train2.acceleration__AT1)))
(let ((.def_674 (and .def_672 .def_673)))
(let ((.def_675 (or train2.mode.0__AT1 .def_674)))
(let ((.def_668 (<= (- (/ 7 5)) train2.acceleration__AT1)))
(let ((.def_670 (and .def_668 .def_669)))
(let ((.def_587 (not train2.mode.0__AT1)))
(let ((.def_671 (or .def_587 .def_670)))
(let ((.def_676 (and .def_671 .def_675)))
(let ((.def_890 (and .def_676 .def_889)))
(let ((.def_913 (and .def_890 .def_912)))
(let ((.def_776 (+ train1.timer__AT1 train1.delta__AT1)))
(let ((.def_787 (<= .def_776 8.0 )))
(let ((.def_793 (not .def_787)))
(let ((.def_645 (<= train1.timer__AT1 8.0 )))
(let ((.def_794 (or .def_645 .def_793)))
(let ((.def_791 (<= 8.0 .def_776)))
(let ((.def_789 (<= 8.0 train1.timer__AT1)))
(let ((.def_790 (not .def_789)))
(let ((.def_792 (or .def_790 .def_791)))
(let ((.def_795 (and .def_792 .def_794)))
(let ((.def_788 (and .def_645 .def_787)))
(let ((.def_796 (and .def_788 .def_795)))
(let ((.def_783 (<= train1.timer__AT1 0.0 )))
(let ((.def_781 (<= .def_776 0.0 )))
(let ((.def_782 (not .def_781)))
(let ((.def_784 (or .def_782 .def_783)))
(let ((.def_644 (<= 0.0 train1.timer__AT1)))
(let ((.def_779 (not .def_644)))
(let ((.def_777 (<= 0.0 .def_776)))
(let ((.def_780 (or .def_777 .def_779)))
(let ((.def_785 (and .def_780 .def_784)))
(let ((.def_778 (and .def_644 .def_777)))
(let ((.def_786 (and .def_778 .def_785)))
(let ((.def_797 (and .def_786 .def_796)))
(let ((.def_738 (* train1.acceleration__AT1 train1.delta__AT1)))
(let ((.def_739 (+ train1.speed__AT1 .def_738)))
(let ((.def_756 (<= .def_739 (/ 417 5))))
(let ((.def_768 (not .def_756)))
(let ((.def_640 (<= train1.speed__AT1 (/ 417 5))))
(let ((.def_769 (or .def_640 .def_768)))
(let ((.def_762 (<= (/ 417 5) train1.speed__AT1)))
(let ((.def_766 (not .def_762)))
(let ((.def_760 (<= (/ 417 5) .def_739)))
(let ((.def_767 (or .def_760 .def_766)))
(let ((.def_770 (and .def_767 .def_769)))
(let ((.def_649 (<= train1.acceleration__AT1 0.0 )))
(let ((.def_771 (or .def_649 .def_770)))
(let ((.def_761 (not .def_760)))
(let ((.def_763 (or .def_761 .def_762)))
(let ((.def_758 (not .def_640)))
(let ((.def_759 (or .def_756 .def_758)))
(let ((.def_764 (and .def_759 .def_763)))
(let ((.def_730 (<= 0.0 train1.acceleration__AT1)))
(let ((.def_765 (or .def_730 .def_764)))
(let ((.def_772 (and .def_765 .def_771)))
(let ((.def_757 (and .def_640 .def_756)))
(let ((.def_773 (and .def_757 .def_772)))
(let ((.def_742 (<= .def_739 0.0 )))
(let ((.def_749 (not .def_742)))
(let ((.def_711 (<= train1.speed__AT1 0.0 )))
(let ((.def_750 (or .def_711 .def_749)))
(let ((.def_740 (<= 0.0 .def_739)))
(let ((.def_639 (<= 0.0 train1.speed__AT1)))
(let ((.def_698 (not .def_639)))
(let ((.def_748 (or .def_698 .def_740)))
(let ((.def_751 (and .def_748 .def_750)))
(let ((.def_752 (or .def_649 .def_751)))
(let ((.def_744 (not .def_740)))
(let ((.def_745 (or .def_639 .def_744)))
(let ((.def_712 (not .def_711)))
(let ((.def_743 (or .def_712 .def_742)))
(let ((.def_746 (and .def_743 .def_745)))
(let ((.def_747 (or .def_730 .def_746)))
(let ((.def_753 (and .def_747 .def_752)))
(let ((.def_741 (and .def_639 .def_740)))
(let ((.def_754 (and .def_741 .def_753)))
(let ((.def_686 (* (/ 1 2) train1.acceleration__AT1)))
(let ((.def_693 (* 2.0 .def_686)))
(let ((.def_694 (* train1.delta__AT1 .def_693)))
(let ((.def_695 (+ train1.speed__AT1 .def_694)))
(let ((.def_709 (<= .def_695 0.0 )))
(let ((.def_710 (not .def_709)))
(let ((.def_733 (or .def_710 .def_711)))
(let ((.def_696 (<= 0.0 .def_695)))
(let ((.def_732 (or .def_696 .def_698)))
(let ((.def_734 (and .def_732 .def_733)))
(let ((.def_735 (or .def_649 .def_734)))
(let ((.def_697 (not .def_696)))
(let ((.def_728 (or .def_639 .def_697)))
(let ((.def_727 (or .def_709 .def_712)))
(let ((.def_729 (and .def_727 .def_728)))
(let ((.def_731 (or .def_729 .def_730)))
(let ((.def_736 (and .def_731 .def_735)))
(let ((.def_724 (and .def_709 .def_711)))
(let ((.def_723 (and .def_639 .def_696)))
(let ((.def_725 (or .def_723 .def_724)))
(let ((.def_688 (* train1.speed__AT1 train1.delta__AT1)))
(let ((.def_685 (* train1.delta__AT1 train1.delta__AT1)))
(let ((.def_687 (* .def_685 .def_686)))
(let ((.def_689 (+ .def_687 .def_688)))
(let ((.def_690 (+ train1.front_position__AT1 .def_689)))
(let ((.def_703 (<= .def_690 0.0 )))
(let ((.def_717 (not .def_703)))
(let ((.def_701 (<= train1.front_position__AT1 0.0 )))
(let ((.def_718 (or .def_701 .def_717)))
(let ((.def_642 (<= 0.0 train1.front_position__AT1)))
(let ((.def_715 (not .def_642)))
(let ((.def_691 (<= 0.0 .def_690)))
(let ((.def_716 (or .def_691 .def_715)))
(let ((.def_719 (and .def_716 .def_718)))
(let ((.def_713 (or .def_710 .def_712)))
(let ((.def_714 (not .def_713)))
(let ((.def_720 (or .def_714 .def_719)))
(let ((.def_705 (not .def_691)))
(let ((.def_706 (or .def_642 .def_705)))
(let ((.def_702 (not .def_701)))
(let ((.def_704 (or .def_702 .def_703)))
(let ((.def_707 (and .def_704 .def_706)))
(let ((.def_699 (or .def_697 .def_698)))
(let ((.def_700 (not .def_699)))
(let ((.def_708 (or .def_700 .def_707)))
(let ((.def_721 (and .def_708 .def_720)))
(let ((.def_692 (and .def_642 .def_691)))
(let ((.def_722 (and .def_692 .def_721)))
(let ((.def_726 (and .def_722 .def_725)))
(let ((.def_737 (and .def_726 .def_736)))
(let ((.def_755 (and .def_737 .def_754)))
(let ((.def_774 (and .def_755 .def_773)))
(let ((.def_653 (<= train1.acceleration__AT1 (/ 7 10))))
(let ((.def_652 (<= (- (/ 7 10)) train1.acceleration__AT1)))
(let ((.def_654 (and .def_652 .def_653)))
(let ((.def_655 (or train1.mode.0__AT1 .def_654)))
(let ((.def_648 (<= (- (/ 7 5)) train1.acceleration__AT1)))
(let ((.def_650 (and .def_648 .def_649)))
(let ((.def_434 (not train1.mode.0__AT1)))
(let ((.def_651 (or .def_434 .def_650)))
(let ((.def_656 (and .def_651 .def_655)))
(let ((.def_775 (and .def_656 .def_774)))
(let ((.def_798 (and .def_775 .def_797)))
(let ((.def_914 (and .def_798 .def_913)))
(let ((.def_622 (* (- 1.0) train2.front_position__AT0)))
(let ((.def_680 (+ train1.front_position__AT0 .def_622)))
(let ((.def_681 (<= .def_680 (- 200.0) )))
(let ((.def_666 (and .def_664 .def_665)))
(let ((.def_662 (and .def_660 .def_661)))
(let ((.def_646 (and .def_644 .def_645)))
(let ((.def_641 (and .def_639 .def_640)))
(let ((.def_643 (and .def_641 .def_642)))
(let ((.def_647 (and .def_643 .def_646)))
(let ((.def_657 (and .def_647 .def_656)))
(let ((.def_659 (and .def_657 .def_658)))
(let ((.def_663 (and .def_659 .def_662)))
(let ((.def_667 (and .def_663 .def_666)))
(let ((.def_677 (and .def_667 .def_676)))
(let ((.def_634 (<= 0.0 train2.delta__AT0)))
(let ((.def_484 (not train2.EVENT.1__AT0)))
(let ((.def_486 (and .def_484 train2.EVENT.0__AT0)))
(let ((.def_487 (not .def_486)))
(let ((.def_635 (or .def_487 .def_634)))
(let ((.def_499 (and train2.EVENT.1__AT0 train2.EVENT.0__AT0)))
(let ((.def_636 (or .def_499 .def_635)))
(let ((.def_539 (= train2.acceleration__AT0 train2.acceleration__AT1)))
(let ((.def_536 (= train2.mode.0__AT0 train2.mode.0__AT1)))
(let ((.def_630 (and .def_536 .def_539)))
(let ((.def_631 (or .def_487 .def_630)))
(let ((.def_632 (or .def_499 .def_631)))
(let ((.def_224 (* train2.speed__AT0 train2.delta__AT0)))
(let ((.def_619 (* (- 1.0) .def_224)))
(let ((.def_222 (* (/ 1 2) train2.acceleration__AT0)))
(let ((.def_221 (* train2.delta__AT0 train2.delta__AT0)))
(let ((.def_223 (* .def_221 .def_222)))
(let ((.def_620 (* (- 1.0) .def_223)))
(let ((.def_621 (+ .def_620 .def_619)))
(let ((.def_623 (+ .def_622 .def_621)))
(let ((.def_624 (+ train2.front_position__AT1 .def_623)))
(let ((.def_625 (= .def_624 0.0 )))
(let ((.def_612 (* (- 1.0) train2.timer__AT1)))
(let ((.def_613 (+ train2.delta__AT0 .def_612)))
(let ((.def_614 (+ train2.timer__AT0 .def_613)))
(let ((.def_615 (= .def_614 0.0 )))
(let ((.def_608 (* (- 1.0) train2.speed__AT1)))
(let ((.def_274 (* train2.acceleration__AT0 train2.delta__AT0)))
(let ((.def_609 (+ .def_274 .def_608)))
(let ((.def_610 (+ train2.speed__AT0 .def_609)))
(let ((.def_611 (= .def_610 0.0 )))
(let ((.def_616 (and .def_611 .def_615)))
(let ((.def_626 (and .def_616 .def_625)))
(let ((.def_627 (or .def_487 .def_626)))
(let ((.def_602 (= train2.delta__AT0 0.0 )))
(let ((.def_603 (and .def_486 .def_602)))
(let ((.def_604 (not .def_603)))
(let ((.def_530 (= train2.speed__AT0 train2.speed__AT1)))
(let ((.def_527 (= train2.front_position__AT1 train2.front_position__AT0)))
(let ((.def_593 (and .def_527 .def_530)))
(let ((.def_533 (= train2.timer__AT0 train2.timer__AT1)))
(let ((.def_594 (and .def_533 .def_593)))
(let ((.def_605 (or .def_594 .def_604)))
(let ((.def_606 (or .def_499 .def_605)))
(let ((.def_494 (not train2.EVENT.0__AT0)))
(let ((.def_596 (and train2.EVENT.1__AT0 .def_494)))
(let ((.def_597 (not .def_596)))
(let ((.def_575 (* (- 3.0) train2.train_rear_loc__AT0)))
(let ((.def_555 (* train2.speed__AT0 train2.speed__AT0)))
(let ((.def_556 (* (- 5.0) .def_555)))
(let ((.def_576 (+ .def_556 .def_575)))
(let ((.def_577 (* 3.0 train2.front_position__AT0)))
(let ((.def_579 (+ .def_577 .def_576)))
(let ((.def_582 (<= .def_579 (- 1200.0) )))
(let ((.def_564 (* (- 1.0) train2.train_rear_loc__AT0)))
(let ((.def_565 (+ train2.front_position__AT0 .def_564)))
(let ((.def_569 (<= (- 400.0) .def_565)))
(let ((.def_583 (and .def_569 .def_582)))
(let ((.def_580 (<= (- 1200.0) .def_579)))
(let ((.def_566 (<= .def_565 (- 400.0) )))
(let ((.def_581 (and .def_566 .def_580)))
(let ((.def_584 (or .def_581 .def_583)))
(let ((.def_585 (and train2.mode.0__AT0 .def_584)))
(let ((.def_589 (or .def_536 .def_585)))
(let ((.def_586 (not .def_585)))
(let ((.def_588 (or .def_586 .def_587)))
(let ((.def_590 (and .def_588 .def_589)))
(let ((.def_558 (* (- 7.0) train2.train_rear_loc__AT0)))
(let ((.def_559 (+ .def_556 .def_558)))
(let ((.def_560 (* 7.0 train2.front_position__AT0)))
(let ((.def_562 (+ .def_560 .def_559)))
(let ((.def_568 (<= (- 2800.0) .def_562)))
(let ((.def_570 (and .def_568 .def_569)))
(let ((.def_563 (<= .def_562 (- 2800.0) )))
(let ((.def_567 (and .def_563 .def_566)))
(let ((.def_571 (or .def_567 .def_570)))
(let ((.def_48 (not train2.mode.0__AT0)))
(let ((.def_572 (and .def_48 .def_571)))
(let ((.def_591 (or .def_572 .def_590)))
(let ((.def_573 (not .def_572)))
(let ((.def_574 (or train2.mode.0__AT1 .def_573)))
(let ((.def_592 (and .def_574 .def_591)))
(let ((.def_595 (and .def_592 .def_594)))
(let ((.def_598 (or .def_595 .def_597)))
(let ((.def_599 (or .def_486 .def_598)))
(let ((.def_600 (or .def_499 .def_599)))
(let ((.def_546 (= train2.timer__AT1 0.0 )))
(let ((.def_545 (= train2.timer__AT0 8.0 )))
(let ((.def_547 (and .def_545 .def_546)))
(let ((.def_548 (and .def_536 .def_547)))
(let ((.def_549 (and .def_527 .def_548)))
(let ((.def_550 (and .def_530 .def_549)))
(let ((.def_551 (and .def_539 .def_550)))
(let ((.def_495 (and .def_484 .def_494)))
(let ((.def_496 (not .def_495)))
(let ((.def_552 (or .def_496 .def_551)))
(let ((.def_553 (or .def_486 .def_552)))
(let ((.def_554 (or .def_499 .def_553)))
(let ((.def_601 (and .def_554 .def_600)))
(let ((.def_607 (and .def_601 .def_606)))
(let ((.def_628 (and .def_607 .def_627)))
(let ((.def_541 (not .def_499)))
(let ((.def_515 (= train2.time__AT0 train2.time__AT1)))
(let ((.def_528 (and .def_515 .def_527)))
(let ((.def_531 (and .def_528 .def_530)))
(let ((.def_534 (and .def_531 .def_533)))
(let ((.def_537 (and .def_534 .def_536)))
(let ((.def_540 (and .def_537 .def_539)))
(let ((.def_542 (or .def_540 .def_541)))
(let ((.def_518 (* (- 1.0) train2.time__AT1)))
(let ((.def_521 (+ train2.delta__AT0 .def_518)))
(let ((.def_522 (+ train2.time__AT0 .def_521)))
(let ((.def_523 (= .def_522 0.0 )))
(let ((.def_524 (or .def_487 .def_523)))
(let ((.def_525 (or .def_499 .def_524)))
(let ((.def_516 (or .def_486 .def_515)))
(let ((.def_517 (or .def_499 .def_516)))
(let ((.def_526 (and .def_517 .def_525)))
(let ((.def_543 (and .def_526 .def_542)))
(let ((.def_511 (= .def_487 train2.event_is_timed__AT1)))
(let ((.def_509 (= train2.event_is_timed__AT0 .def_486)))
(let ((.def_512 (and .def_509 .def_511)))
(let ((.def_338 (not train1.EVENT.1__AT0)))
(let ((.def_340 (and .def_338 train1.EVENT.0__AT0)))
(let ((.def_504 (= .def_340 .def_486)))
(let ((.def_378 (not train1.EVENT.0__AT0)))
(let ((.def_391 (and train1.EVENT.1__AT0 .def_378)))
(let ((.def_502 (= .def_391 .def_495)))
(let ((.def_349 (and train1.EVENT.1__AT0 train1.EVENT.0__AT0)))
(let ((.def_500 (and .def_349 .def_499)))
(let ((.def_501 (not .def_500)))
(let ((.def_503 (and .def_501 .def_502)))
(let ((.def_505 (and .def_503 .def_504)))
(let ((.def_506 (and .def_502 .def_505)))
(let ((.def_507 (and .def_504 .def_506)))
(let ((.def_406 (* (- 1.0) train1.train_rear_loc__AT0)))
(let ((.def_492 (+ train2.front_position__AT0 .def_406)))
(let ((.def_493 (= .def_492 200.0 )))
(let ((.def_497 (or .def_493 .def_496)))
(let ((.def_482 (= train1.delta__AT0 train2.delta__AT0)))
(let ((.def_488 (or .def_482 .def_487)))
(let ((.def_479 (<= 0.0 train1.delta__AT0)))
(let ((.def_342 (not .def_340)))
(let ((.def_480 (or .def_342 .def_479)))
(let ((.def_481 (or .def_349 .def_480)))
(let ((.def_489 (and .def_481 .def_488)))
(let ((.def_490 (and .def_488 .def_489)))
(let ((.def_372 (= train1.acceleration__AT0 train1.acceleration__AT1)))
(let ((.def_369 (= train1.mode.0__AT0 train1.mode.0__AT1)))
(let ((.def_475 (and .def_369 .def_372)))
(let ((.def_476 (or .def_342 .def_475)))
(let ((.def_477 (or .def_349 .def_476)))
(let ((.def_467 (* (- 1.0) train1.speed__AT1)))
(let ((.def_159 (* train1.acceleration__AT0 train1.delta__AT0)))
(let ((.def_468 (+ .def_159 .def_467)))
(let ((.def_469 (+ train1.speed__AT0 .def_468)))
(let ((.def_470 (= .def_469 0.0 )))
(let ((.def_462 (* (- 1.0) train1.timer__AT1)))
(let ((.def_463 (+ train1.delta__AT0 .def_462)))
(let ((.def_464 (+ train1.timer__AT0 .def_463)))
(let ((.def_465 (= .def_464 0.0 )))
(let ((.def_109 (* train1.speed__AT0 train1.delta__AT0)))
(let ((.def_455 (* (- 1.0) .def_109)))
(let ((.def_107 (* (/ 1 2) train1.acceleration__AT0)))
(let ((.def_104 (* train1.delta__AT0 train1.delta__AT0)))
(let ((.def_108 (* .def_104 .def_107)))
(let ((.def_456 (* (- 1.0) .def_108)))
(let ((.def_457 (+ .def_456 .def_455)))
(let ((.def_458 (* (- 1.0) train1.front_position__AT0)))
(let ((.def_459 (+ .def_458 .def_457)))
(let ((.def_460 (+ train1.front_position__AT1 .def_459)))
(let ((.def_461 (= .def_460 0.0 )))
(let ((.def_466 (and .def_461 .def_465)))
(let ((.def_471 (and .def_466 .def_470)))
(let ((.def_472 (or .def_342 .def_471)))
(let ((.def_447 (= train1.delta__AT0 0.0 )))
(let ((.def_448 (and .def_340 .def_447)))
(let ((.def_449 (not .def_448)))
(let ((.def_363 (= train1.speed__AT0 train1.speed__AT1)))
(let ((.def_360 (= train1.front_position__AT1 train1.front_position__AT0)))
(let ((.def_440 (and .def_360 .def_363)))
(let ((.def_366 (= train1.timer__AT0 train1.timer__AT1)))
(let ((.def_441 (and .def_366 .def_440)))
(let ((.def_450 (or .def_441 .def_449)))
(let ((.def_451 (or .def_349 .def_450)))
(let ((.def_420 (* (- 3.0) train1.train_rear_loc__AT0)))
(let ((.def_393 (* train1.speed__AT0 train1.speed__AT0)))
(let ((.def_395 (* (- 5.0) .def_393)))
(let ((.def_421 (+ .def_395 .def_420)))
(let ((.def_422 (* 3.0 train1.front_position__AT0)))
(let ((.def_426 (+ .def_422 .def_421)))
(let ((.def_429 (<= .def_426 (- 1200.0) )))
(let ((.def_407 (+ train1.front_position__AT0 .def_406)))
(let ((.def_412 (<= (- 400.0) .def_407)))
(let ((.def_430 (and .def_412 .def_429)))
(let ((.def_427 (<= (- 1200.0) .def_426)))
(let ((.def_409 (<= .def_407 (- 400.0) )))
(let ((.def_428 (and .def_409 .def_427)))
(let ((.def_431 (or .def_428 .def_430)))
(let ((.def_432 (and train1.mode.0__AT0 .def_431)))
(let ((.def_436 (or .def_369 .def_432)))
(let ((.def_433 (not .def_432)))
(let ((.def_435 (or .def_433 .def_434)))
(let ((.def_437 (and .def_435 .def_436)))
(let ((.def_398 (* (- 7.0) train1.train_rear_loc__AT0)))
(let ((.def_399 (+ .def_395 .def_398)))
(let ((.def_400 (* 7.0 train1.front_position__AT0)))
(let ((.def_404 (+ .def_400 .def_399)))
(let ((.def_411 (<= (- 2800.0) .def_404)))
(let ((.def_413 (and .def_411 .def_412)))
(let ((.def_405 (<= .def_404 (- 2800.0) )))
(let ((.def_410 (and .def_405 .def_409)))
(let ((.def_414 (or .def_410 .def_413)))
(let ((.def_30 (not train1.mode.0__AT0)))
(let ((.def_415 (and .def_30 .def_414)))
(let ((.def_438 (or .def_415 .def_437)))
(let ((.def_416 (not .def_415)))
(let ((.def_417 (or train1.mode.0__AT1 .def_416)))
(let ((.def_439 (and .def_417 .def_438)))
(let ((.def_442 (and .def_439 .def_441)))
(let ((.def_392 (not .def_391)))
(let ((.def_443 (or .def_392 .def_442)))
(let ((.def_444 (or .def_340 .def_443)))
(let ((.def_445 (or .def_349 .def_444)))
(let ((.def_382 (= train1.timer__AT1 0.0 )))
(let ((.def_381 (= train1.timer__AT0 8.0 )))
(let ((.def_383 (and .def_381 .def_382)))
(let ((.def_384 (and .def_369 .def_383)))
(let ((.def_385 (and .def_360 .def_384)))
(let ((.def_386 (and .def_363 .def_385)))
(let ((.def_387 (and .def_372 .def_386)))
(let ((.def_379 (and .def_338 .def_378)))
(let ((.def_380 (not .def_379)))
(let ((.def_388 (or .def_380 .def_387)))
(let ((.def_389 (or .def_340 .def_388)))
(let ((.def_390 (or .def_349 .def_389)))
(let ((.def_446 (and .def_390 .def_445)))
(let ((.def_452 (and .def_446 .def_451)))
(let ((.def_473 (and .def_452 .def_472)))
(let ((.def_374 (not .def_349)))
(let ((.def_347 (= train1.time__AT0 train1.time__AT1)))
(let ((.def_361 (and .def_347 .def_360)))
(let ((.def_364 (and .def_361 .def_363)))
(let ((.def_367 (and .def_364 .def_366)))
(let ((.def_370 (and .def_367 .def_369)))
(let ((.def_373 (and .def_370 .def_372)))
(let ((.def_375 (or .def_373 .def_374)))
(let ((.def_351 (* (- 1.0) train1.time__AT1)))
(let ((.def_354 (+ train1.delta__AT0 .def_351)))
(let ((.def_355 (+ train1.time__AT0 .def_354)))
(let ((.def_356 (= .def_355 0.0 )))
(let ((.def_357 (or .def_342 .def_356)))
(let ((.def_358 (or .def_349 .def_357)))
(let ((.def_348 (or .def_340 .def_347)))
(let ((.def_350 (or .def_348 .def_349)))
(let ((.def_359 (and .def_350 .def_358)))
(let ((.def_376 (and .def_359 .def_375)))
(let ((.def_344 (= .def_342 train1.event_is_timed__AT1)))
(let ((.def_341 (= train1.event_is_timed__AT0 .def_340)))
(let ((.def_345 (and .def_341 .def_344)))
(let ((.def_377 (and .def_345 .def_376)))
(let ((.def_474 (and .def_377 .def_473)))
(let ((.def_478 (and .def_474 .def_477)))
(let ((.def_491 (and .def_478 .def_490)))
(let ((.def_498 (and .def_491 .def_497)))
(let ((.def_508 (and .def_498 .def_507)))
(let ((.def_513 (and .def_508 .def_512)))
(let ((.def_544 (and .def_513 .def_543)))
(let ((.def_629 (and .def_544 .def_628)))
(let ((.def_633 (and .def_629 .def_632)))
(let ((.def_637 (and .def_633 .def_636)))
(let ((.def_638 (and .def_597 .def_637)))
(let ((.def_678 (and .def_638 .def_677)))
(let ((.def_682 (and .def_678 .def_681)))
(let ((.def_312 (+ train2.timer__AT0 train2.delta__AT0)))
(let ((.def_323 (<= .def_312 8.0 )))
(let ((.def_329 (not .def_323)))
(let ((.def_87 (<= train2.timer__AT0 8.0 )))
(let ((.def_330 (or .def_87 .def_329)))
(let ((.def_327 (<= 8.0 .def_312)))
(let ((.def_325 (<= 8.0 train2.timer__AT0)))
(let ((.def_326 (not .def_325)))
(let ((.def_328 (or .def_326 .def_327)))
(let ((.def_331 (and .def_328 .def_330)))
(let ((.def_324 (and .def_87 .def_323)))
(let ((.def_332 (and .def_324 .def_331)))
(let ((.def_319 (<= train2.timer__AT0 0.0 )))
(let ((.def_317 (<= .def_312 0.0 )))
(let ((.def_318 (not .def_317)))
(let ((.def_320 (or .def_318 .def_319)))
(let ((.def_86 (<= 0.0 train2.timer__AT0)))
(let ((.def_315 (not .def_86)))
(let ((.def_313 (<= 0.0 .def_312)))
(let ((.def_316 (or .def_313 .def_315)))
(let ((.def_321 (and .def_316 .def_320)))
(let ((.def_314 (and .def_86 .def_313)))
(let ((.def_322 (and .def_314 .def_321)))
(let ((.def_333 (and .def_322 .def_332)))
(let ((.def_275 (+ train2.speed__AT0 .def_274)))
(let ((.def_292 (<= .def_275 (/ 417 5))))
(let ((.def_304 (not .def_292)))
(let ((.def_83 (<= train2.speed__AT0 (/ 417 5))))
(let ((.def_305 (or .def_83 .def_304)))
(let ((.def_298 (<= (/ 417 5) train2.speed__AT0)))
(let ((.def_302 (not .def_298)))
(let ((.def_296 (<= (/ 417 5) .def_275)))
(let ((.def_303 (or .def_296 .def_302)))
(let ((.def_306 (and .def_303 .def_305)))
(let ((.def_92 (<= train2.acceleration__AT0 0.0 )))
(let ((.def_307 (or .def_92 .def_306)))
(let ((.def_297 (not .def_296)))
(let ((.def_299 (or .def_297 .def_298)))
(let ((.def_294 (not .def_83)))
(let ((.def_295 (or .def_292 .def_294)))
(let ((.def_300 (and .def_295 .def_299)))
(let ((.def_266 (<= 0.0 train2.acceleration__AT0)))
(let ((.def_301 (or .def_266 .def_300)))
(let ((.def_308 (and .def_301 .def_307)))
(let ((.def_293 (and .def_83 .def_292)))
(let ((.def_309 (and .def_293 .def_308)))
(let ((.def_278 (<= .def_275 0.0 )))
(let ((.def_285 (not .def_278)))
(let ((.def_247 (<= train2.speed__AT0 0.0 )))
(let ((.def_286 (or .def_247 .def_285)))
(let ((.def_276 (<= 0.0 .def_275)))
(let ((.def_82 (<= 0.0 train2.speed__AT0)))
(let ((.def_234 (not .def_82)))
(let ((.def_284 (or .def_234 .def_276)))
(let ((.def_287 (and .def_284 .def_286)))
(let ((.def_288 (or .def_92 .def_287)))
(let ((.def_280 (not .def_276)))
(let ((.def_281 (or .def_82 .def_280)))
(let ((.def_248 (not .def_247)))
(let ((.def_279 (or .def_248 .def_278)))
(let ((.def_282 (and .def_279 .def_281)))
(let ((.def_283 (or .def_266 .def_282)))
(let ((.def_289 (and .def_283 .def_288)))
(let ((.def_277 (and .def_82 .def_276)))
(let ((.def_290 (and .def_277 .def_289)))
(let ((.def_229 (* 2.0 .def_222)))
(let ((.def_230 (* train2.delta__AT0 .def_229)))
(let ((.def_231 (+ train2.speed__AT0 .def_230)))
(let ((.def_245 (<= .def_231 0.0 )))
(let ((.def_246 (not .def_245)))
(let ((.def_269 (or .def_246 .def_247)))
(let ((.def_232 (<= 0.0 .def_231)))
(let ((.def_268 (or .def_232 .def_234)))
(let ((.def_270 (and .def_268 .def_269)))
(let ((.def_271 (or .def_92 .def_270)))
(let ((.def_233 (not .def_232)))
(let ((.def_264 (or .def_82 .def_233)))
(let ((.def_263 (or .def_245 .def_248)))
(let ((.def_265 (and .def_263 .def_264)))
(let ((.def_267 (or .def_265 .def_266)))
(let ((.def_272 (and .def_267 .def_271)))
(let ((.def_260 (and .def_245 .def_247)))
(let ((.def_259 (and .def_82 .def_232)))
(let ((.def_261 (or .def_259 .def_260)))
(let ((.def_225 (+ .def_223 .def_224)))
(let ((.def_226 (+ train2.front_position__AT0 .def_225)))
(let ((.def_239 (<= .def_226 0.0 )))
(let ((.def_253 (not .def_239)))
(let ((.def_237 (<= train2.front_position__AT0 0.0 )))
(let ((.def_254 (or .def_237 .def_253)))
(let ((.def_80 (<= 0.0 train2.front_position__AT0)))
(let ((.def_251 (not .def_80)))
(let ((.def_227 (<= 0.0 .def_226)))
(let ((.def_252 (or .def_227 .def_251)))
(let ((.def_255 (and .def_252 .def_254)))
(let ((.def_249 (or .def_246 .def_248)))
(let ((.def_250 (not .def_249)))
(let ((.def_256 (or .def_250 .def_255)))
(let ((.def_241 (not .def_227)))
(let ((.def_242 (or .def_80 .def_241)))
(let ((.def_238 (not .def_237)))
(let ((.def_240 (or .def_238 .def_239)))
(let ((.def_243 (and .def_240 .def_242)))
(let ((.def_235 (or .def_233 .def_234)))
(let ((.def_236 (not .def_235)))
(let ((.def_244 (or .def_236 .def_243)))
(let ((.def_257 (and .def_244 .def_256)))
(let ((.def_228 (and .def_80 .def_227)))
(let ((.def_258 (and .def_228 .def_257)))
(let ((.def_262 (and .def_258 .def_261)))
(let ((.def_273 (and .def_262 .def_272)))
(let ((.def_291 (and .def_273 .def_290)))
(let ((.def_310 (and .def_291 .def_309)))
(let ((.def_96 (<= train2.acceleration__AT0 (/ 7 10))))
(let ((.def_95 (<= (- (/ 7 10)) train2.acceleration__AT0)))
(let ((.def_97 (and .def_95 .def_96)))
(let ((.def_98 (or train2.mode.0__AT0 .def_97)))
(let ((.def_91 (<= (- (/ 7 5)) train2.acceleration__AT0)))
(let ((.def_93 (and .def_91 .def_92)))
(let ((.def_94 (or .def_48 .def_93)))
(let ((.def_99 (and .def_94 .def_98)))
(let ((.def_311 (and .def_99 .def_310)))
(let ((.def_334 (and .def_311 .def_333)))
(let ((.def_197 (+ train1.timer__AT0 train1.delta__AT0)))
(let ((.def_208 (<= .def_197 8.0 )))
(let ((.def_214 (not .def_208)))
(let ((.def_60 (<= train1.timer__AT0 8.0 )))
(let ((.def_215 (or .def_60 .def_214)))
(let ((.def_212 (<= 8.0 .def_197)))
(let ((.def_210 (<= 8.0 train1.timer__AT0)))
(let ((.def_211 (not .def_210)))
(let ((.def_213 (or .def_211 .def_212)))
(let ((.def_216 (and .def_213 .def_215)))
(let ((.def_209 (and .def_60 .def_208)))
(let ((.def_217 (and .def_209 .def_216)))
(let ((.def_204 (<= train1.timer__AT0 0.0 )))
(let ((.def_202 (<= .def_197 0.0 )))
(let ((.def_203 (not .def_202)))
(let ((.def_205 (or .def_203 .def_204)))
(let ((.def_58 (<= 0.0 train1.timer__AT0)))
(let ((.def_200 (not .def_58)))
(let ((.def_198 (<= 0.0 .def_197)))
(let ((.def_201 (or .def_198 .def_200)))
(let ((.def_206 (and .def_201 .def_205)))
(let ((.def_199 (and .def_58 .def_198)))
(let ((.def_207 (and .def_199 .def_206)))
(let ((.def_218 (and .def_207 .def_217)))
(let ((.def_160 (+ train1.speed__AT0 .def_159)))
(let ((.def_177 (<= .def_160 (/ 417 5))))
(let ((.def_189 (not .def_177)))
(let ((.def_54 (<= train1.speed__AT0 (/ 417 5))))
(let ((.def_190 (or .def_54 .def_189)))
(let ((.def_183 (<= (/ 417 5) train1.speed__AT0)))
(let ((.def_187 (not .def_183)))
(let ((.def_181 (<= (/ 417 5) .def_160)))
(let ((.def_188 (or .def_181 .def_187)))
(let ((.def_191 (and .def_188 .def_190)))
(let ((.def_68 (<= train1.acceleration__AT0 0.0 )))
(let ((.def_192 (or .def_68 .def_191)))
(let ((.def_182 (not .def_181)))
(let ((.def_184 (or .def_182 .def_183)))
(let ((.def_179 (not .def_54)))
(let ((.def_180 (or .def_177 .def_179)))
(let ((.def_185 (and .def_180 .def_184)))
(let ((.def_151 (<= 0.0 train1.acceleration__AT0)))
(let ((.def_186 (or .def_151 .def_185)))
(let ((.def_193 (and .def_186 .def_192)))
(let ((.def_178 (and .def_54 .def_177)))
(let ((.def_194 (and .def_178 .def_193)))
(let ((.def_163 (<= .def_160 0.0 )))
(let ((.def_170 (not .def_163)))
(let ((.def_132 (<= train1.speed__AT0 0.0 )))
(let ((.def_171 (or .def_132 .def_170)))
(let ((.def_161 (<= 0.0 .def_160)))
(let ((.def_50 (<= 0.0 train1.speed__AT0)))
(let ((.def_119 (not .def_50)))
(let ((.def_169 (or .def_119 .def_161)))
(let ((.def_172 (and .def_169 .def_171)))
(let ((.def_173 (or .def_68 .def_172)))
(let ((.def_165 (not .def_161)))
(let ((.def_166 (or .def_50 .def_165)))
(let ((.def_133 (not .def_132)))
(let ((.def_164 (or .def_133 .def_163)))
(let ((.def_167 (and .def_164 .def_166)))
(let ((.def_168 (or .def_151 .def_167)))
(let ((.def_174 (and .def_168 .def_173)))
(let ((.def_162 (and .def_50 .def_161)))
(let ((.def_175 (and .def_162 .def_174)))
(let ((.def_114 (* 2.0 .def_107)))
(let ((.def_115 (* train1.delta__AT0 .def_114)))
(let ((.def_116 (+ train1.speed__AT0 .def_115)))
(let ((.def_130 (<= .def_116 0.0 )))
(let ((.def_131 (not .def_130)))
(let ((.def_154 (or .def_131 .def_132)))
(let ((.def_117 (<= 0.0 .def_116)))
(let ((.def_153 (or .def_117 .def_119)))
(let ((.def_155 (and .def_153 .def_154)))
(let ((.def_156 (or .def_68 .def_155)))
(let ((.def_118 (not .def_117)))
(let ((.def_149 (or .def_50 .def_118)))
(let ((.def_148 (or .def_130 .def_133)))
(let ((.def_150 (and .def_148 .def_149)))
(let ((.def_152 (or .def_150 .def_151)))
(let ((.def_157 (and .def_152 .def_156)))
(let ((.def_145 (and .def_130 .def_132)))
(let ((.def_144 (and .def_50 .def_117)))
(let ((.def_146 (or .def_144 .def_145)))
(let ((.def_110 (+ .def_108 .def_109)))
(let ((.def_111 (+ train1.front_position__AT0 .def_110)))
(let ((.def_124 (<= .def_111 0.0 )))
(let ((.def_138 (not .def_124)))
(let ((.def_122 (<= train1.front_position__AT0 0.0 )))
(let ((.def_139 (or .def_122 .def_138)))
(let ((.def_56 (<= 0.0 train1.front_position__AT0)))
(let ((.def_136 (not .def_56)))
(let ((.def_112 (<= 0.0 .def_111)))
(let ((.def_137 (or .def_112 .def_136)))
(let ((.def_140 (and .def_137 .def_139)))
(let ((.def_134 (or .def_131 .def_133)))
(let ((.def_135 (not .def_134)))
(let ((.def_141 (or .def_135 .def_140)))
(let ((.def_126 (not .def_112)))
(let ((.def_127 (or .def_56 .def_126)))
(let ((.def_123 (not .def_122)))
(let ((.def_125 (or .def_123 .def_124)))
(let ((.def_128 (and .def_125 .def_127)))
(let ((.def_120 (or .def_118 .def_119)))
(let ((.def_121 (not .def_120)))
(let ((.def_129 (or .def_121 .def_128)))
(let ((.def_142 (and .def_129 .def_141)))
(let ((.def_113 (and .def_56 .def_112)))
(let ((.def_143 (and .def_113 .def_142)))
(let ((.def_147 (and .def_143 .def_146)))
(let ((.def_158 (and .def_147 .def_157)))
(let ((.def_176 (and .def_158 .def_175)))
(let ((.def_195 (and .def_176 .def_194)))
(let ((.def_75 (<= train1.acceleration__AT0 (/ 7 10))))
(let ((.def_74 (<= (- (/ 7 10)) train1.acceleration__AT0)))
(let ((.def_76 (and .def_74 .def_75)))
(let ((.def_77 (or train1.mode.0__AT0 .def_76)))
(let ((.def_67 (<= (- (/ 7 5)) train1.acceleration__AT0)))
(let ((.def_69 (and .def_67 .def_68)))
(let ((.def_70 (or .def_30 .def_69)))
(let ((.def_78 (and .def_70 .def_77)))
(let ((.def_196 (and .def_78 .def_195)))
(let ((.def_219 (and .def_196 .def_218)))
(let ((.def_335 (and .def_219 .def_334)))
(let ((.def_88 (and .def_86 .def_87)))
(let ((.def_84 (and .def_82 .def_83)))
(let ((.def_61 (and .def_58 .def_60)))
(let ((.def_55 (and .def_50 .def_54)))
(let ((.def_57 (and .def_55 .def_56)))
(let ((.def_62 (and .def_57 .def_61)))
(let ((.def_79 (and .def_62 .def_78)))
(let ((.def_81 (and .def_79 .def_80)))
(let ((.def_85 (and .def_81 .def_84)))
(let ((.def_89 (and .def_85 .def_88)))
(let ((.def_100 (and .def_89 .def_99)))
(let ((.def_45 (= train2.timer__AT0 0.0 )))
(let ((.def_42 (= train2.speed__AT0 0.0 )))
(let ((.def_39 (= train2.front_position__AT0 400.0 )))
(let ((.def_35 (= train2.time__AT0 0.0 )))
(let ((.def_27 (= train1.timer__AT0 0.0 )))
(let ((.def_24 (= train1.speed__AT0 0.0 )))
(let ((.def_21 (= train1.front_position__AT0 0.0 )))
(let ((.def_17 (= train1.time__AT0 0.0 )))
(let ((.def_19 (and .def_17 train1.event_is_timed__AT0)))
(let ((.def_22 (and .def_19 .def_21)))
(let ((.def_25 (and .def_22 .def_24)))
(let ((.def_28 (and .def_25 .def_27)))
(let ((.def_31 (and .def_28 .def_30)))
(let ((.def_33 (and .def_31 train2.event_is_timed__AT0)))
(let ((.def_36 (and .def_33 .def_35)))
(let ((.def_40 (and .def_36 .def_39)))
(let ((.def_43 (and .def_40 .def_42)))
(let ((.def_46 (and .def_43 .def_45)))
(let ((.def_49 (and .def_46 .def_48)))
(let ((.def_101 (and .def_49 .def_100)))
(let ((.def_11 (* (- 1.0) train2.front_position__AT1)))
(let ((.def_12 (+ train1.front_position__AT1 .def_11)))
(let ((.def_13 (<= .def_12 (- 200.0) )))
(let ((.def_14 (not .def_13)))
(let ((.def_102 (and .def_14 .def_101)))
(let ((.def_336 (and .def_102 .def_335)))
(let ((.def_683 (and .def_336 .def_682)))
(let ((.def_915 (and .def_683 .def_914)))
.def_915))))))))))))))))))))))))))))))))))))))))))))))))))))))))))))))))))))))))))))))))))))))))))))))))))))))))))))))))))))))))))))))))))))))))))))))))))))))))))))))))))))))))))))))))))))))))))))))))))))))))))))))))))))))))))))))))))))))))))))))))))))))))))))))))))))))))))))))))))))))))))))))))))))))))))))))))))))))))))))))))))))))))))))))))))))))))))))))))))))))))))))))))))))))))))))))))))))))))))))))))))))))))))))))))))))))))))))))))))))))))))))))))))))))))))))))))))))))))))))))))))))))))))))))))))))))))))))))))))))))))))))))))))))))))))))))))))))))))))))))))))))))))))))))))))))))))))))))))))))))))))))))))))))))))))))))))))))))))))))))))))))))))))))))))))))))))))))))))))))))))))))))))))))))))))))))))))))))))))))))))))))))))))))))))))))))))))))))))))))))))))))))))))))))))))))))))))))))))))))))))))))))))))))))))))))))))))))))))))
(check-sat)
(exit)
